
Gurobi 11.0.1 (win64) logging started Wed Mar 13 20:00:48 2024

Set parameter LogFile to value "C:\Projetos\Job_Rotation_Algorithms\Outputs\GurobiLogs\gurobi_log-output-30_ros-c34-CostaMirallesModel-NoExtraConstraint-2.log"
Gurobi Optimizer version 11.0.1 build v11.0.1rc0 (win64 - Windows 10.0 (19045.2))

CPU model: 11th Gen Intel(R) Core(TM) i7-1165G7 @ 2.80GHz, instruction set [SSE2|AVX|AVX2|AVX512]
Thread count: 4 physical cores, 8 logical processors, using up to 1 threads


Gurobi 11.0.1 (win64) logging started Thu Mar 14 07:59:05 2024

Set parameter LogFile to value "C:\Projetos\Job_Rotation_Algorithms\Outputs\GurobiLogs\gurobi_log-output-30_ros-c34-CostaMirallesModel-NoExtraConstraint-2.log"
Gurobi Optimizer version 11.0.1 build v11.0.1rc0 (win64 - Windows 10.0 (19045.2))

CPU model: 11th Gen Intel(R) Core(TM) i7-1165G7 @ 2.80GHz, instruction set [SSE2|AVX|AVX2|AVX512]
Thread count: 4 physical cores, 8 logical processors, using up to 1 threads


Gurobi 11.0.1 (win64) logging started Thu Mar 14 21:33:41 2024

Set parameter LogFile to value "C:\Projetos\Job_Rotation_Algorithms\Outputs\GurobiLogs\gurobi_log-output-30_ros-c34-CostaMirallesModel-NoExtraConstraint-2.log"
Gurobi Optimizer version 11.0.1 build v11.0.1rc0 (win64 - Windows 10.0 (19045.2))

CPU model: 11th Gen Intel(R) Core(TM) i7-1165G7 @ 2.80GHz, instruction set [SSE2|AVX|AVX2|AVX512]
Thread count: 4 physical cores, 8 logical processors, using up to 1 threads

WLS license 901039 - registered to Bitka Analytics
Optimize a model with 426 rows, 889 columns and 6965 nonzeros
Model fingerprint: 0x5967c436
Variable types: 2 continuous, 887 integer (887 binary)
Coefficient statistics:
  Matrix range     [1e+00, 3e+01]
  Objective range  [1e+00, 1e+00]
  Bounds range     [1e+00, 7e+01]
  RHS range        [1e+00, 7e+01]
Presolve removed 41 rows and 89 columns
Presolve time: 0.03s
Presolved: 385 rows, 800 columns, 6017 nonzeros
Variable types: 0 continuous, 800 integer (799 binary)

Root relaxation: objective 5.000000e+01, 424 iterations, 0.02 seconds (0.01 work units)

    Nodes    |    Current Node    |     Objective Bounds      |     Work
 Expl Unexpl |  Obj  Depth IntInf | Incumbent    BestBd   Gap | It/Node Time

     0     0   50.00000    0   14          -   50.00000      -     -    0s
     0     0   50.00000    0  148          -   50.00000      -     -    0s
     0     0   50.00000    0  125          -   50.00000      -     -    0s
     0     0   50.00000    0   38          -   50.00000      -     -    0s
     0     0   50.00000    0   54          -   50.00000      -     -    1s
     0     0   50.00000    0   35          -   50.00000      -     -    1s
     0     0   50.00000    0   35          -   50.00000      -     -    1s
     0     2   50.00000    0   34          -   50.00000      -     -    1s
H 1093   331                      36.0000000   50.00000  38.9%  24.4    4s
* 1094   311              35      38.0000000   50.00000  31.6%  24.4    4s
  1103   304   50.00000   17  110   38.00000   50.00000  31.6%  25.3    5s
H 1147   277                      39.0000000   50.00000  28.2%  29.2    5s
H 1205   243                      44.0000000   50.00000  13.6%  31.5    5s
H 1292   188                      48.0000000   50.00000  4.17%  34.8    5s
  1983    39 infeasible   31        48.00000   50.00000  4.17%  61.4   10s
* 2367    35              27      49.0000000   50.00000  2.04%  68.4   12s
  2677    17 infeasible   37        49.00000   50.00000  2.04%  76.7   15s

Cutting planes:
  Cover: 13
  Clique: 30
  MIR: 1
  StrongCG: 1
  Flow cover: 8
  GUB cover: 9
  RLT: 1

Explored 2930 nodes (281602 simplex iterations) in 16.15 seconds (15.34 work units)
Thread count was 1 (of 8 available processors)

Solution count 6: 49 48 44 ... 36

Optimal solution found (tolerance 1.00e-03)
Best objective 4.900000000000e+01, best bound 4.900000000000e+01, gap 0.0000%
